5 5
1 83 2 61 4 43 3 15 0 79
4 79 3 73 0 5 1 83 2 88
4 29 2 62 3 60 1 69 0 22
3 13 2 50 0 47 4 29 1 80
0 17 3 20 2 78 4 6 1 22
-1
0 2 3 4 5
0 2 3 5
0 1 5
0 2 3 4 5
0 2 5
-2
154 286 278 387
207 248 522
39 303
68 122 174 296
57 221

393 2
20 17 7 4 14
0 19 8 13 24
16 1 11 22 9
15 21 6 3 12
10 5 18 2 23
